Normalized Data/p10_12_normalized_splitx10_0.vrp
NAME:p10_12_NORMALIZED_splitx10_
BEST_KNOWN: 0
COMMENT: 0
DIMENSION: 811
CAPACITY: 1000
EDGE_WEIGHT_FORMAT: FUNCTION
EDGE_WEIGHT_TYPE: EXACT_2D
NODE_COORD_SECTION
1 0.00000 0.00000
2 -46 27
3 -46 27
4 -46 27
5 27 37
6 27 37
7 27 37
8 44 -19
9 44 -19
10 44 -19
11 19 -25
12 19 -25
13 -3 -5
14 -3 -5
15 -49 9
16 -49 9
17 -49 9
18 -14 37
19 -14 37
20 -14 37
21 -14 37
22 -14 37
23 3 -28
24 3 -28
25 3 -28
26 3 -28
27 3 -28
28 -5 -27
29 -5 -27
30 -5 -27
31 -5 -27
32 -5 -27
33 -47 32
34 -47 32
35 -47 32
36 -47 32
37 -47 32
38 -47 32
39 23 -24
40 23 -24
41 23 -24
42 23 -24
43 23 -24
44 23 -24
45 7 1
46 7 1
47 36 -21
48 36 -21
49 36 -21
50 36 -21
51 36 -21
52 1 41
53 1 41
54 1 41
55 1 41
56 -45 13
57 -28 -3
58 -28 -3
59 -45 -49
60 -45 -49
61 -45 -49
62 -45 -49
63 4 12
64 4 12
65 4 12
66 4 12
67 -3 12
68 -3 12
69 -3 12
70 -3 12
71 -3 12
72 -3 12
73 -26 -28
74 -26 -28
75 -26 -28
76 40 -12
77 40 -12
78 40 -12
79 40 -12
80 40 -12
81 18 49
82 18 49
83 18 49
84 18 49
85 27 -8
86 27 -8
87 27 -8
88 18 -7
89 18 -7
90 -9 15
91 -9 15
92 -9 15
93 -9 15
94 -18 -34
95 -18 -34
96 -18 -34
97 -18 -34
98 43 30
99 43 30
100 -42 16
101 -42 16
102 -42 16
103 -42 16
104 -42 16
105 -42 16
106 21 0
107 21 0
108 21 0
109 21 0
110 21 36
111 21 36
112 21 36
113 20 -36
114 20 -36
115 20 -36
116 20 -36
117 20 -36
118 -34 -35
119 -34 -35
120 -50 -22
121 -50 -22
122 -50 -22
123 32 42
124 32 42
125 32 42
126 32 42
127 31 38
128 31 38
129 31 38
130 31 38
131 -40 24
132 -40 24
133 -40 24
134 -2 -11
135 -2 -11
136 -2 -11
137 2 -47
138 2 -47
139 2 -47
140 2 -47
141 2 -47
142 -14 42
143 -14 42
144 -14 42
145 -42 50
146 -42 50
147 -42 50
148 -42 50
149 -42 50
150 -45 12
151 -45 12
152 -45 12
153 -45 12
154 -45 12
155 -2 -28
156 -2 -28
157 -2 -28
158 -2 -28
159 -2 -28
160 -2 -28
161 24 -14
162 24 -14
163 24 -14
164 -3 -35
165 -3 -35
166 42 -23
167 42 -23
168 15 -21
169 15 -21
170 15 -21
171 15 -21
172 15 -21
173 44 -43
174 44 -43
175 44 -43
176 44 -43
177 36 -31
178 36 -31
179 36 -31
180 36 -31
181 36 -31
182 36 -31
183 36 -31
184 -49 -43
185 -49 -43
186 -49 -43
187 -49 -43
188 -49 -43
189 -49 -43
190 30 -33
191 30 -33
192 30 -33
193 30 -33
194 4 3
195 4 3
196 4 3
197 4 3
198 4 3
199 4 3
200 -32 50
201 -32 50
202 -32 50
203 -32 50
204 -32 50
205 -28 49
206 -28 49
207 -28 49
208 -28 49
209 -28 49
210 22 17
211 22 17
212 22 17
213 22 17
214 22 17
215 4 50
216 4 50
217 4 50
218 4 50
219 4 50
220 4 50
221 4 50
222 -2 17
223 -2 17
224 -2 17
225 44 -9
226 44 -9
227 44 -9
228 44 -9
229 44 -9
230 44 -9
231 -8 35
232 -8 35
233 -8 35
234 -8 35
235 -8 35
236 48 27
237 48 27
238 48 27
239 48 27
240 48 27
241 -13 -33
242 -13 -33
243 -9 32
244 -9 32
245 -9 32
246 -9 32
247 -27 -23
248 -27 -23
249 -27 -23
250 7 50
251 7 50
252 7 50
253 7 50
254 -38 13
255 -38 13
256 -38 13
257 -28 11
258 -28 11
259 -28 11
260 -28 11
261 -28 11
262 12 12
263 12 12
264 12 12
265 -14 10
266 -14 10
267 -14 10
268 -14 10
269 -14 10
270 -16 32
271 -16 32
272 -16 32
273 -16 32
274 -16 32
275 -21 -31
276 -21 -31
277 38 30
278 38 30
279 38 30
280 38 30
281 38 30
282 38 30
283 38 30
284 -27 35
285 -27 35
286 -27 35
287 45 -21
288 45 -21
289 45 -21
290 45 -21
291 45 -21
292 16 45
293 16 45
294 16 45
295 -27 -4
296 -27 -4
297 -27 -4
298 -27 -4
299 -27 -4
300 -27 -4
301 42 39
302 42 39
303 42 39
304 42 39
305 -25 -39
306 -25 -39
307 -25 -39
308 -25 -39
309 -25 -39
310 -23 20
311 -23 20
312 -29 -40
313 -29 -40
314 -29 -40
315 -29 -40
316 29 -48
317 29 -48
318 -42 47
319 -42 47
320 -42 47
321 -42 47
322 -42 47
323 -42 47
324 -42 47
325 42 18
326 42 18
327 42 18
328 42 18
329 42 18
330 42 18
331 42 18
332 6 6
333 6 6
334 -38 18
335 -38 18
336 -38 18
337 -38 18
338 22 -43
339 22 -43
340 22 -43
341 22 -43
342 22 -43
343 -36 -8
344 -36 -8
345 -36 -8
346 -14 -35
347 -23 -4
348 -23 -4
349 -23 -4
350 -23 -4
351 -23 -4
352 -37 46
353 -37 46
354 -37 46
355 -8 -46
356 -8 -46
357 -8 -46
358 -8 -46
359 8 0
360 8 0
361 -40 -32
362 -40 -32
363 -40 -32
364 -40 -32
365 -25 40
366 -25 40
367 -25 40
368 -25 40
369 -25 40
370 -25 40
371 -25 40
372 -7 -21
373 -7 -21
374 -7 -21
375 47 26
376 47 26
377 47 26
378 47 26
379 0 8
380 0 8
381 0 8
382 -34 24
383 -34 24
384 -34 24
385 -34 24
386 -34 24
387 22 28
388 22 28
389 -20 -50
390 -20 -50
391 -20 -50
392 -8 -15
393 -8 -15
394 10 -32
395 10 -32
396 10 -32
397 10 -32
398 10 -32
399 -24 23
400 -24 23
401 -35 -18
402 -35 -18
403 -35 -18
404 -35 -18
405 -47 14
406 -47 14
407 -47 14
408 -47 14
409 -26 47
410 -26 47
411 -26 47
412 -32 -19
413 -32 -19
414 -32 -19
415 -32 -19
416 -48 -45
417 -48 -45
418 -48 -45
419 -48 -45
420 -48 -45
421 20 -13
422 20 -13
423 20 -13
424 -26 21
425 -26 21
426 -26 21
427 47 -43
428 47 -43
429 47 -43
430 47 -43
431 34 -46
432 34 -46
433 34 -46
434 34 -46
435 13 48
436 13 48
437 13 48
438 13 48
439 -14 -7
440 -14 -7
441 -14 -7
442 -14 -7
443 -23 15
444 -23 15
445 -23 15
446 11 -21
447 11 -21
448 11 -21
449 11 -21
450 37 29
451 37 29
452 37 29
453 37 29
454 37 29
455 37 29
456 4 -40
457 4 -40
458 4 -40
459 4 -40
460 16 30
461 16 30
462 16 30
463 16 30
464 16 30
465 1 5
466 1 5
467 1 5
468 -8 9
469 -8 9
470 -8 9
471 -8 9
472 -44 -14
473 -44 -14
474 -44 -14
475 -44 -14
476 -44 -14
477 -44 -14
478 -37 32
479 -37 32
480 -37 32
481 -37 32
482 -37 32
483 -37 32
484 -50 -11
485 10 29
486 10 29
487 10 29
488 10 29
489 10 29
490 10 29
491 10 29
492 -40 -30
493 -40 -30
494 -40 -30
495 -40 -30
496 39 -45
497 39 -45
498 39 -45
499 39 -45
500 39 -45
501 34 35
502 34 35
503 34 35
504 40 -46
505 40 -46
506 40 -46
507 40 -46
508 40 -46
509 -17 41
510 -17 41
511 -17 41
512 -17 41
513 -17 41
514 15 9
515 15 9
516 15 9
517 -27 38
518 -27 38
519 -27 38
520 -27 38
521 -27 38
522 -1 -24
523 -1 -24
524 -1 -24
525 -1 -24
526 -1 -24
527 -1 -24
528 -17 -18
529 -17 -18
530 -17 -18
531 -17 -18
532 36 4
533 36 4
534 36 4
535 48 -28
536 48 -28
537 -9 43
538 -9 43
539 -9 43
540 -9 43
541 -9 43
542 -9 43
543 -23 -32
544 -23 -32
545 -23 -32
546 -23 -32
547 -23 -32
548 -31 -50
549 -31 -50
550 -31 -50
551 -31 -50
552 -31 -50
553 -31 -50
554 6 48
555 6 48
556 6 48
557 6 48
558 6 48
559 47 -50
560 47 -50
561 -27 23
562 -27 23
563 -27 23
564 -27 23
565 -27 23
566 -27 23
567 -27 23
568 39 -47
569 39 -47
570 39 -47
571 39 -47
572 39 42
573 39 42
574 21 20
575 21 20
576 21 20
577 21 20
578 21 20
579 21 20
580 -32 26
581 -32 26
582 -28 -31
583 -28 -31
584 -28 -31
585 -28 -31
586 37 -24
587 37 -24
588 37 -24
589 37 -24
590 37 -24
591 7 48
592 7 48
593 7 48
594 7 48
595 -48 -45
596 -48 -45
597 -48 -45
598 -48 -45
599 -48 -45
600 -27 -9
601 -27 -9
602 -27 -9
603 -27 -9
604 -23 8
605 -23 8
606 -23 8
607 -23 8
608 -23 8
609 -23 8
610 -39 46
611 -39 46
612 -39 46
613 -39 46
614 -30 -18
615 -30 -18
616 -30 -18
617 -30 -18
618 -30 -18
619 -30 -18
620 -32 11
621 -32 11
622 -32 11
623 -32 11
624 -32 11
625 5 4
626 5 4
627 5 4
628 42 5
629 42 5
630 42 5
631 42 5
632 42 5
633 -48 -28
634 -48 -28
635 -48 -28
636 -48 -28
637 -48 -28
638 -48 -28
639 9 30
640 9 30
641 9 30
642 9 30
643 -30 16
644 -30 16
645 -30 16
646 -30 16
647 -5 3
648 -5 3
649 -5 3
650 -14 -40
651 -14 -40
652 -1 32
653 -1 32
654 -1 32
655 -1 32
656 -1 32
657 -37 -22
658 -37 -22
659 -37 -22
660 11 -19
661 11 -19
662 11 -19
663 36 23
664 36 23
665 36 23
666 22 -50
667 22 -50
668 22 -50
669 22 -50
670 22 -50
671 22 -50
672 16 27
673 16 27
674 16 27
675 50 6
676 50 6
677 50 6
678 50 6
679 50 6
680 45 -33
681 45 -33
682 45 -33
683 45 -33
684 -39 -5
685 -39 -5
686 -39 -5
687 -39 -5
688 -39 -5
689 -39 -5
690 31 -24
691 31 -24
692 31 -24
693 36 -44
694 36 -44
695 36 -44
696 36 -44
697 36 -44
698 24 42
699 24 42
700 24 42
701 -42 -48
702 -42 -48
703 -42 -48
704 -3 -44
705 -3 -44
706 44 -13
707 44 -13
708 44 -13
709 -39 4
710 -39 4
711 -14 -30
712 -14 -30
713 -14 -30
714 -14 -30
715 -14 -30
716 -16 42
717 -16 42
718 -16 42
719 -16 42
720 -16 42
721 33 -43
722 33 -43
723 33 -43
724 33 -43
725 8 -47
726 8 -47
727 -25 -6
728 -25 -6
729 -25 -6
730 -25 -6
731 36 -50
732 36 -50
733 36 -50
734 36 -50
735 36 -50
736 15 -18
737 15 -18
738 15 -18
739 15 -18
740 15 -18
741 15 -18
742 23 18
743 23 18
744 23 18
745 23 18
746 23 18
747 38 0
748 38 0
749 38 0
750 37 44
751 37 44
752 37 44
753 37 44
754 37 44
755 37 44
756 6 -9
757 6 -9
758 6 -9
759 6 -9
760 -25 -12
761 -25 -12
762 -25 -12
763 -25 -12
764 -25 -12
765 -25 -12
766 -8 30
767 -8 30
768 -8 30
769 -8 30
770 -8 30
771 -8 30
772 -8 30
773 5 5
774 5 5
775 5 5
776 4 -37
777 4 -37
778 4 -37
779 4 -37
780 10 8
781 10 8
782 10 8
783 10 8
784 10 8
785 -22 -2
786 -22 -2
787 45 -3
788 45 -3
789 45 -3
790 45 -3
791 45 -3
792 45 -3
793 -16 -17
794 -16 -17
795 -16 -17
796 -39 34
797 -39 34
798 -39 34
799 -39 34
800 41 40
801 41 40
802 41 40
803 41 40
804 41 40
805 41 40
806 -50 42
807 -50 42
808 -50 42
809 -18 43
810 -18 43
811 -18 43
DEMAND_SECTION
1 0
2 200
3 10
4 10
5 200
6 100
7 10
8 200
9 200
10 50
11 200
12 100
13 200
14 200
15 200
16 200
17 50
18 200
19 10
20 10
21 10
22 10
23 200
24 100
25 50
26 10
27 10
28 200
29 100
30 50
31 10
32 10
33 100
34 50
35 10
36 10
37 10
38 10
39 200
40 50
41 10
42 10
43 10
44 10
45 200
46 200
47 200
48 50
49 10
50 10
51 10
52 100
53 50
54 10
55 10
56 200
57 200
58 100
59 100
60 10
61 10
62 10
63 200
64 50
65 10
66 10
67 200
68 50
69 10
70 10
71 10
72 10
73 200
74 100
75 50
76 200
77 10
78 10
79 10
80 10
81 200
82 100
83 50
84 10
85 200
86 50
87 10
88 100
89 50
90 100
91 50
92 10
93 10
94 200
95 50
96 10
97 10
98 200
99 200
100 200
101 200
102 50
103 10
104 10
105 10
106 200
107 50
108 10
109 10
110 200
111 100
112 10
113 200
114 200
115 50
116 10
117 10
118 200
119 50
120 200
121 100
122 50
123 200
124 100
125 50
126 10
127 100
128 50
129 10
130 10
131 200
132 100
133 50
134 200
135 200
136 50
137 200
138 10
139 10
140 10
141 10
142 200
143 200
144 100
145 100
146 50
147 10
148 10
149 10
150 100
151 50
152 10
153 10
154 10
155 200
156 200
157 50
158 10
159 10
160 10
161 200
162 200
163 10
164 200
165 100
166 200
167 50
168 100
169 10
170 10
171 10
172 10
173 200
174 200
175 10
176 10
177 200
178 200
179 50
180 10
181 10
182 10
183 10
184 200
185 100
186 10
187 10
188 10
189 10
190 200
191 100
192 10
193 10
194 200
195 200
196 10
197 10
198 10
199 10
200 200
201 200
202 50
203 10
204 10
205 100
206 50
207 10
208 10
209 10
210 200
211 100
212 50
213 10
214 10
215 200
216 200
217 50
218 10
219 10
220 10
221 10
222 200
223 100
224 10
225 200
226 200
227 10
228 10
229 10
230 10
231 100
232 50
233 10
234 10
235 10
236 200
237 100
238 50
239 10
240 10
241 100
242 50
243 200
244 10
245 10
246 10
247 200
248 50
249 10
250 200
251 200
252 10
253 10
254 200
255 50
256 10
257 200
258 200
259 10
260 10
261 10
262 200
263 200
264 10
265 200
266 100
267 10
268 10
269 10
270 100
271 10
272 10
273 10
274 10
275 200
276 100
277 200
278 100
279 50
280 10
281 10
282 10
283 10
284 200
285 100
286 10
287 100
288 10
289 10
290 10
291 10
292 200
293 10
294 10
295 100
296 50
297 10
298 10
299 10
300 10
301 100
302 50
303 10
304 10
305 200
306 100
307 50
308 10
309 10
310 100
311 50
312 200
313 50
314 10
315 10
316 200
317 100
318 200
319 200
320 50
321 10
322 10
323 10
324 10
325 200
326 100
327 50
328 10
329 10
330 10
331 10
332 200
333 200
334 100
335 10
336 10
337 10
338 200
339 100
340 50
341 10
342 10
343 200
344 200
345 10
346 200
347 200
348 200
349 10
350 10
351 10
352 200
353 50
354 10
355 100
356 50
357 10
358 10
359 200
360 200
361 200
362 100
363 10
364 10
365 200
366 200
367 50
368 10
369 10
370 10
371 10
372 200
373 200
374 10
375 200
376 200
377 50
378 10
379 200
380 100
381 10
382 200
383 10
384 10
385 10
386 10
387 200
388 200
389 200
390 100
391 50
392 100
393 50
394 100
395 50
396 10
397 10
398 10
399 100
400 50
401 100
402 50
403 10
404 10
405 200
406 10
407 10
408 10
409 200
410 100
411 10
412 100
413 50
414 10
415 10
416 200
417 200
418 10
419 10
420 10
421 100
422 10
423 10
424 100
425 50
426 10
427 200
428 100
429 50
430 10
431 200
432 200
433 50
434 10
435 200
436 200
437 50
438 10
439 100
440 50
441 10
442 10
443 200
444 100
445 50
446 200
447 200
448 10
449 10
450 200
451 100
452 50
453 10
454 10
455 10
456 200
457 100
458 50
459 10
460 200
461 100
462 10
463 10
464 10
465 200
466 200
467 50
468 200
469 10
470 10
471 10
472 200
473 100
474 10
475 10
476 10
477 10
478 200
479 50
480 10
481 10
482 10
483 10
484 200
485 200
486 100
487 50
488 10
489 10
490 10
491 10
492 200
493 200
494 50
495 10
496 200
497 100
498 50
499 10
500 10
501 100
502 10
503 10
504 200
505 100
506 10
507 10
508 10
509 200
510 100
511 10
512 10
513 10
514 100
515 50
516 10
517 100
518 50
519 10
520 10
521 10
522 100
523 50
524 10
525 10
526 10
527 10
528 200
529 200
530 50
531 10
532 100
533 50
534 10
535 100
536 50
537 200
538 200
539 50
540 10
541 10
542 10
543 200
544 200
545 50
546 10
547 10
548 200
549 200
550 50
551 10
552 10
553 10
554 100
555 50
556 10
557 10
558 10
559 200
560 50
561 200
562 100
563 50
564 10
565 10
566 10
567 10
568 200
569 200
570 10
571 10
572 200
573 50
574 200
575 100
576 50
577 10
578 10
579 10
580 200
581 10
582 200
583 10
584 10
585 10
586 200
587 100
588 10
589 10
590 10
591 200
592 10
593 10
594 10
595 200
596 100
597 10
598 10
599 10
600 200
601 50
602 10
603 10
604 200
605 100
606 50
607 10
608 10
609 10
610 200
611 10
612 10
613 10
614 100
615 50
616 10
617 10
618 10
619 10
620 200
621 10
622 10
623 10
624 10
625 200
626 50
627 10
628 200
629 100
630 50
631 10
632 10
633 200
634 50
635 10
636 10
637 10
638 10
639 200
640 100
641 50
642 10
643 200
644 100
645 10
646 10
647 200
648 200
649 10
650 100
651 50
652 200
653 100
654 50
655 10
656 10
657 200
658 200
659 10
660 100
661 50
662 10
663 200
664 10
665 10
666 200
667 100
668 10
669 10
670 10
671 10
672 200
673 100
674 10
675 200
676 100
677 10
678 10
679 10
680 200
681 100
682 10
683 10
684 100
685 50
686 10
687 10
688 10
689 10
690 200
691 100
692 10
693 100
694 10
695 10
696 10
697 10
698 200
699 200
700 50
701 200
702 10
703 10
704 200
705 50
706 200
707 200
708 100
709 100
710 50
711 200
712 50
713 10
714 10
715 10
716 200
717 200
718 10
719 10
720 10
721 200
722 200
723 50
724 10
725 200
726 200
727 200
728 50
729 10
730 10
731 200
732 10
733 10
734 10
735 10
736 200
737 200
738 50
739 10
740 10
741 10
742 200
743 200
744 10
745 10
746 10
747 200
748 50
749 10
750 200
751 200
752 50
753 10
754 10
755 10
756 200
757 10
758 10
759 10
760 200
761 200
762 50
763 10
764 10
765 10
766 200
767 200
768 50
769 10
770 10
771 10
772 10
773 200
774 100
775 10
776 200
777 200
778 10
779 10
780 200
781 200
782 10
783 10
784 10
785 200
786 100
787 200
788 100
789 50
790 10
791 10
792 10
793 200
794 10
795 10
796 200
797 100
798 10
799 10
800 100
801 50
802 10
803 10
804 10
805 10
806 100
807 50
808 10
809 200
810 10
811 10
DEPOT_SECTION
1
-1
EOF