Normalized Data/p10_12_normalized_splitx10_0.sol
810 -4 5 6 125 123 122 124 126 128 129 387 -9 289 287 290 288 535 534 682 681 680 679 175 173 174 172 -13 12 133 135 134 -20 719 718 717 716 715 810 808 809 509 512 511 510 508 -25 24 22 23 26 777 776 778 775 394 395 397 393 396 -27 31 28 29 30 157 154 158 155 522 524 526 525 521 523 -43 40 42 39 723 720 721 722 433 430 432 431 -45 44 359 358 -50 165 166 286 8 7 75 76 78 79 77 -54 53 52 51 554 557 556 553 555 250 252 251 249 592 593 590 591 -55 152 151 149 150 153 14 16 15 709 708 -63 80 82 83 81 434 437 436 435 654 655 652 -64 65 62 489 486 490 485 488 487 484 638 640 641 639 -66 71 67 68 70 69 221 222 223 379 378 380 -73 74 72 311 314 312 313 305 304 306 -84 791 790 788 787 789 786 747 748 746 532 531 533 -85 86 706 705 707 228 226 227 224 229 225 -87 88 46 49 588 587 589 585 586 690 691 689 -102 100 101 103 104 99 405 404 407 406 255 253 254 -108 106 107 105 745 742 741 743 744 209 210 -115 116 112 113 114 337 338 341 445 447 -145 144 147 146 148 805 806 807 35 33 34 32 37 36 2 1 3 336 334 335 333 643 644 645 -159 156 163 164 703 704 354 357 355 356 345 -160 47 48 179 177 176 178 182 189 191 737 738 -169 170 171 168 167 11 10 41 38 162 161 422 420 421 -181 180 429 427 426 428 559 558 499 496 497 498 495 -192 190 506 505 507 504 503 567 568 569 570 696 695 692 694 693 -196 195 197 198 194 193 465 464 466 -199 201 203 202 200 208 207 204 206 205 410 409 408 -212 211 213 663 664 97 98 301 302 303 300 799 803 800 802 804 801 500 501 502 -215 219 218 217 214 220 216 537 541 539 540 538 536 771 770 -233 234 232 230 143 141 142 19 17 21 18 269 271 272 270 273 -235 237 238 236 239 376 374 375 377 325 327 328 330 -260 257 258 259 256 623 619 622 621 620 607 604 608 606 603 -267 266 265 443 444 442 424 423 425 566 560 564 310 309 -274 275 96 93 94 95 241 240 710 714 712 711 713 -283 284 285 519 516 520 518 517 370 369 366 364 365 368 367 -291 293 292 697 699 698 109 111 110 461 673 -307 308 550 548 547 552 549 551 389 388 390 649 650 -324 329 326 676 678 677 675 674 627 628 630 629 631 -340 339 670 665 667 666 669 668 315 316 731 732 734 733 730 758 756 -350 349 347 346 348 57 56 784 -353 352 351 609 610 611 612 322 320 319 323 317 318 321 468 470 -383 382 132 131 130 798 797 795 796 477 481 478 479 482 480 -386 127 749 750 751 752 754 753 572 571 -392 391 371 372 373 528 792 793 794 -399 398 562 563 561 565 580 579 381 384 385 642 605 -417 419 595 418 594 415 416 597 118 117 584 -439 440 400 402 403 401 657 656 658 414 412 413 411 616 617 614 618 615 613 -441 438 472 474 475 473 476 471 120 119 121 483 -454 449 451 450 452 453 278 282 276 277 279 281 280 662 -456 458 455 457 140 138 139 137 136 724 725 -469 467 89 90 92 91 264 268 647 648 646 -492 491 494 493 361 362 363 360 581 582 583 -514 515 513 263 262 261 780 779 782 783 781 -527 529 530 246 247 248 544 545 542 546 543 -578 573 575 576 577 574 463 462 459 460 672 671 -624 626 625 331 332 772 773 774 -633 632 636 635 637 634 188 185 184 186 187 183 596 598 60 61 58 59 700 701 702 -651 653 231 245 243 244 242 768 766 765 767 769 -726 599 602 600 601 762 761 759 764 760 763 -727 729 728 343 342 344 686 687 685 684 688 683 299 295 294 297 296 298 785 -736 735 740 739 446 448 660 661 659 757 755 0 





OBJ=
5708.277
BEST_KNOWN=
0.000